c Pigeonhole PHP(3,2): 3 pigeons, 2 holes
c Variables: p_i_j means pigeon i is in hole j
c p11=1, p12=2, p21=3, p22=4, p31=5, p32=6
c UNSAT: cannot place 3 pigeons in 2 holes without sharing
p cnf 6 9
e 1 2 3 4 5 6 0
c Pigeon 1 must be in some hole
1 2 0
c Pigeon 2 must be in some hole
3 4 0
c Pigeon 3 must be in some hole
5 6 0
c No two pigeons in hole 1
-1 -3 0
-1 -5 0
-3 -5 0
c No two pigeons in hole 2
-2 -4 0
-2 -6 0
-4 -6 0
